0	0	0
59	-66	8
-1	-21	24
23	-24	9
20	-5	19
44	30	9
19	-26	18
4	30	9
10	11	14
3	-40	3
58	-1	14
64	-5	8
28	-20	8
-13	-66	13
-12	-40	18
18	14	4
83	-30	24
25	-15	14
73	-67	8
28	9	18
69	-41	13
65	24	2
8	-29	9
44	-36	18
39	16	3
24	-31	24
49	-9	8
28	20	24
18	20	14
24	-45	13
49	-36	24
8	5	23
74	26	9
44	10	13
29	-6	14
59	-67	14
3	-36	18
73	11	24
-2	-44	4
34	-15	8
34	-45	13
-7	-31	4
84	9	14
20	-56	18
